Geometry = GenFormat {
   38  C
  C  O  H
    1 1    0.4485719496E-01    0.2529623858E+01   -0.1287530736E+00
    2 1    0.2160903532E+01    0.1199359883E+01   -0.1307042047E+00
    3 1   -0.7325456222E+00    0.1292979269E+01   -0.1301778661E+00
    4 1    0.1383502953E+01   -0.3728647749E-01   -0.1295729704E+00
    5 1    0.1473328052E+01    0.2453790390E+01   -0.1289531807E+00
    6 1   -0.4496781946E-01    0.3854802542E-01   -0.1291901460E+00
    7 1   -0.5677929769E+00    0.3790635665E+01   -0.1248229048E+00
    8 1    0.3562857898E+01    0.1194043241E+01   -0.1318524150E+00
    9 1   -0.2134502349E+01    0.1298299334E+01   -0.1309283026E+00
   10 1    0.1996150407E+01   -0.1298302260E+01   -0.1265498546E+00
   11 1    0.2232906955E+01    0.3662033295E+01   -0.1259226734E+00
   12 1   -0.8045495749E+00   -0.1169696800E+01   -0.1263756962E+00
   13 1    0.1859630897E+00    0.4971654380E+01   -0.1228331187E+00
   14 1    0.4300416964E+01    0.2385268435E+01   -0.1273967573E+00
   15 1   -0.2872062541E+01    0.1070735371E+00   -0.1266754882E+00
   16 1    0.1242394418E+01   -0.2479319101E+01   -0.1247576139E+00
   17 1    0.1578607843E+01    0.4923866165E+01   -0.1238202854E+00
   18 1    0.3653652547E+01    0.3619558243E+01   -0.1232430942E+00
   19 1   -0.2225295599E+01   -0.1127219428E+01   -0.1231329226E+00
   20 1   -0.1502503162E+00   -0.2431529876E+01   -0.1250927103E+00
   21 1    0.2350655684E+01    0.6184372045E+01   -0.1239343840E+00
   22 1    0.4454792609E+01    0.4861821160E+01   -0.1118379240E+00
   23 1   -0.3026435401E+01   -0.2369487126E+01   -0.1117993874E+00
   24 1   -0.9223038579E+00   -0.3692029959E+01   -0.1253637560E+00
   25 2    0.3769912330E+01    0.6107000356E+01   -0.1150483597E+00
   26 2   -0.2341557018E+01   -0.3614661289E+01   -0.1158141247E+00
   27 2    0.1850216589E+01    0.7285137481E+01   -0.1306141053E+00
   28 2    0.5663651058E+01    0.4887898897E+01   -0.9865621234E-01
   29 2   -0.4235287726E+01   -0.2395564818E+01   -0.9800715936E-01
   30 2   -0.4218704008E+00   -0.4792793238E+01   -0.1326873798E+00
   31 3   -0.1661774774E+01    0.3873317599E+01   -0.1233692264E+00
   32 3    0.4111632616E+01    0.2440351523E+00   -0.1351750613E+00
   33 3   -0.2683274337E+01    0.2248311170E+01   -0.1338062135E+00
   34 3    0.3090129354E+01   -0.1380982434E+01   -0.1256352693E+00
   35 3   -0.3138624134E+00    0.5949655663E+01   -0.1199853822E+00
   36 3    0.5398476662E+01    0.2358688133E+01   -0.1265537277E+00
   37 3   -0.3970124865E+01    0.1336558441E+00   -0.1254926383E+00
   38 3    0.1742211893E+01   -0.3457319437E+01   -0.1226020479E+00
}

# Optimise geometry
Driver = ConjugateGradient {
  MaxForceComponent = 1e-5
}

Hamiltonian = DFTB {
  SCC = Yes
  SCCTolerance = 1E-7
  Filling = Fermi {
    Temperature [Kelvin] = 400
  }
  SlaterKosterFiles = Type2FileNames {
    Prefix = "../../slakos/mio-ext/"
    Separator = "-"
    Suffix = ".skf" 
  }
  MaxAngularMomentum = {
    C = "p"
    O = "p"
    H = "s"
  }
}

# This file uses the 5th input format
ParserOptions = {
  ParserVersion = 5
}

# if run in MPI parallel, allow openMP threads to be used
Parallel = {
  UseOmpThreads = Yes
}
