Geometry = GenFormat {
    9  C
  C  O  H
    1 1    0.1102436317E+02    0.9814912080E+01    0.1077094940E+02
    2 1    0.9927537279E+01    0.1057414616E+02    0.1059548974E+02
    3 1    0.8874513067E+01    0.1016866254E+02    0.9652558454E+01
    4 2    0.1127330307E+02    0.8735391440E+01    0.1004272318E+02
    5 2    0.8723541801E+01    0.9102932990E+01    0.9100291952E+01
    6 3    0.1175078507E+02    0.1012460807E+02    0.1152757822E+02
    7 3    0.9735570909E+01    0.1144537453E+02    0.1118071669E+02
    8 3    0.8107813979E+01    0.1101008133E+02    0.9369352263E+01
    9 3    0.1050293556E+02    0.8593423243E+01    0.9392756259E+01
}

Driver = VelocityVerlet{
  # Time step for MD
  TimeStep [fs] = 1.0

  # Plumed option, indicates whether PLUMED2 is to be used.
  Plumed = Yes

  # Use thermostat to maintain temperature
  Thermostat = NoseHoover {
    Temperature [Kelvin] = 400
    # Approximately the highest vibrational frequency of the molecule
    CouplingStrength [cm^-1] = 3050
  }

 # Specify the initial velocities of the atoms to avoid having a 'burn
 # in' period to get to a 'typical' microstate
 Velocities [AA/ps] { # This is the same unit as xyz format output
  -4.920256060E+00  4.623757680E+00   3.490450270E+00
  2.169853270E+00   -1.076737028E+01  -1.659569420E+00
  -3.142942530E+00  1.347641600E-01   -1.618726940E+00
  5.233096820E+00   2.987765170E+00   4.610070910E+00
  -3.663903700E-01  -7.609644900E-01  -5.305167460E+00
  -2.690943778E+01  2.943543737E+01   1.168852724E+01
  1.545183111E+01   -9.556835730E+00  2.342294637E+01
  2.146900647E+01   -1.227195906E+01  -1.182923506E+01
  -1.709165079E+01   2.861874515E+01  -1.476981063E+01
}

  # total of 100 ps
  Steps = 100000
  MovedAtoms = 1:-1
  # save every 100 steps
  MDRestartFrequency = 100
}


Hamiltonian = DFTB {
  SCC = Yes
  SCCTolerance = 1E-6
  Filling = Fermi {
    Temperature [Kelvin] = 400
  }
  SlaterKosterFiles = Type2FileNames {
   Prefix = "../../slakos/mio-ext/"
   Separator = "-"
   Suffix = ".skf" 
  }
  MaxAngularMomentum = {
    H = "s"
    O = "p"
    C = "p"
  }
}

Options = {
  RandomSeed = 3871906
  # speed up a bit by suppressing some file writing
  WriteDetailedOut = No
}

Analysis {
  # speed up a bit by suppressing some file writing
  WriteBandOut = No
}

# This file uses the 5th input format
ParserOptions = {
  ParserVersion = 5
}

# if run in MPI parallel, allow openMP threads to be used
Parallel = {
  UseOmpThreads = Yes
}
