Geometry = GenFormat {
# Carbon ribbon with H-terminated zig-zag edge as a helical objective cell
 22  H
 C H
    1  1    0.7143539499E+00   -0.3167276310E-07   -0.1401059992E+01
    2  1    0.7143537412E+00   -0.3090330365E-07    0.1066953265E+01
    3  1    0.1427392662E+01   -0.5823116773E-07    0.2300959616E+01
    4  1    0.1427392662E+01   -0.5822584416E-07   -0.1670530867E+00
    5  1    0.2856289750E+01   -0.7569714189E-07    0.2300959378E+01
    6  1    0.2856289750E+01   -0.7570275984E-07   -0.1670528469E+00
    7  1    0.3569043767E+01   -0.6577463263E-07   -0.1401059990E+01
    8  1    0.3569046182E+01   -0.6572278280E-07    0.1066953265E+01
    9  1    0.4998676052E+01   -0.2743479390E-07   -0.1401059986E+01
   10  1    0.4998678365E+01   -0.2793039168E-07    0.1066953270E+01
   11  1    0.5710581038E+01   -0.6349181831E-08    0.2300960573E+01
   12  1    0.5710581038E+01   -0.6356289381E-08   -0.1670540310E+00
   13  1    0.7142378642E+01    0.1759095157E-07    0.2300960337E+01
   14  1    0.7142378642E+01    0.1758974752E-07   -0.1670537790E+00
   15  1    0.7851514043E+01    0.1918207690E-07   -0.1401059975E+01
   16  1    0.7851512877E+01    0.1925670150E-07    0.1066953281E+01
   17  1    0.9292419415E+01    0.9073283201E-08   -0.1401059967E+01
   18  1    0.9292418425E+01    0.9287524519E-08    0.1066953289E+01
   19  1    0.9984692644E+01    0.9518026217E-09   -0.1670531197E+00
   20  1    0.9984692644E+01    0.9502187963E-09    0.2300959700E+01
   21  2    0.1108288966E+02   -0.7944579026E-08    0.2300960057E+01
   22  2    0.1108288966E+02   -0.7947304108E-08   -0.1670534595E+00
    0.0000000000E+00    0.0000000000E+00    0.0000000000E+00
    0.4936026512E+01    0.00000000 2 # translation/AA rotation/deg c_n
}

Driver = LBFGS {}

Hamiltonian = DFTB {
  SCC = No
  MaxAngularMomentum = {
    C = "p"
    H = "s"
  }
  Filling = Fermi {
    Temperature [Kelvin] = 100.0
  }
  SlaterKosterFiles = Type2FileNames {
    Prefix = {slakos/origin/mio-1-1/}
    Separator = "-"
    Suffix = ".skf"
  }
  KPointsAndWeights = HelicalUniform {20 0.5}
}

Analysis = {
  CalculateForces = Yes
  MullikenAnalysis = Yes
}

ParserOptions = {
  ParserVersion = 10
}
