Geometry = GenFormat {
# Carbon ribbon with H-terminated zig-zag edge as a periodic cell
44  S
 C H
    1  2   -0.1169037012E+02   -0.7506679443E-11    0.2300963170E+01
    2  2   -0.1169036903E+02   -0.5614918469E-11   -0.1670504761E+00
    3  1   -0.1059217306E+02   -0.2795890857E-11    0.2300962486E+01
    4  1   -0.1059217236E+02   -0.4262486758E-11   -0.1670507869E+00
    5  1   -0.9899912295E+01    0.5488651206E-11    0.1066955738E+01
    6  1   -0.9899912019E+01   -0.1011796628E-11   -0.1401057606E+01
    7  1   -0.8458961759E+01    0.3608040204E-11   -0.1401057693E+01
    8  1   -0.8458961919E+01    0.1685513923E-11    0.1066955700E+01
    9  1   -0.7749838420E+01   -0.1845292670E-11    0.2300962117E+01
   10  1   -0.7749838504E+01    0.7865045050E-11   -0.1670509413E+00
   11  1   -0.6317966518E+01    0.7681704263E-11    0.2300961971E+01
   12  1   -0.6317966596E+01    0.3198955366E-12   -0.1670511587E+00
   13  1   -0.5606091187E+01    0.1002574942E-10   -0.1401057870E+01
   14  1   -0.5606090984E+01    0.1228911124E-10    0.1066955347E+01
   15  1   -0.4176363559E+01    0.1212878324E-10   -0.1401058219E+01
   16  1   -0.4176363421E+01    0.5500807693E-11    0.1066955102E+01
   17  1   -0.3463650277E+01    0.1855456396E-11    0.2300961660E+01
   18  1   -0.3463650276E+01   -0.5449211863E-12   -0.1670516986E+00
   19  1   -0.2034645921E+01    0.3375390497E-11    0.2300961323E+01
   20  1   -0.2034646056E+01    0.3814735986E-11   -0.1670520552E+00
   21  1   -0.1321656377E+01   -0.1717880736E-11   -0.1401058709E+01
   22  1   -0.1321656312E+01   -0.2403036106E-11    0.1066954588E+01
   23  1    0.1071626801E+00   -0.9269333298E-12   -0.1401059070E+01
   24  1    0.1071625398E+00   -0.9821500498E-11    0.1066954229E+01
   25  1    0.8201519616E+00   -0.1010021906E-10    0.2300960787E+01
   26  1    0.8201520376E+00   -0.4114778079E-11   -0.1670525468E+00
   27  1    0.2249156669E+01   -0.6264832877E-11    0.2300960405E+01
   28  1    0.2249156622E+01   -0.8732291103E-11   -0.1670529265E+00
   29  1    0.2961869669E+01   -0.7037014212E-11   -0.1401059589E+01
   30  1    0.2961869533E+01   -0.1135412919E-10    0.1066953689E+01
   31  1    0.4391597286E+01   -0.7528430287E-11   -0.1401059916E+01
   32  1    0.4391597097E+01   -0.1105918803E-10    0.1066953274E+01
   33  1    0.5103472919E+01   -0.4962185596E-11    0.2300959773E+01
   34  1    0.5103472904E+01   -0.9146703937E-11   -0.1670533394E+00
   35  1    0.6535344256E+01   -0.3945622210E-11    0.2300959400E+01
   36  1    0.6535344293E+01   -0.3561264628E-11   -0.1670536743E+00
   37  1    0.7244468072E+01   -0.1592489474E-12   -0.1401060455E+01
   38  1    0.7244468228E+01    0.3885654402E-11    0.1066952825E+01
   39  1    0.8685418076E+01   -0.1218071418E-11   -0.1401060748E+01
   40  1    0.8685418333E+01    0.2103428957E-11    0.1066952538E+01
   41  1    0.9377679089E+01    0.9465032843E-11   -0.1670540207E+00
   42  1    0.9377679482E+01    0.1213316593E-10    0.2300959274E+01
   43  2    0.1047587685E+02    0.1175324115E-10    0.2300959916E+01
   44  2    0.1047587627E+02    0.1265590835E-10   -0.1670540269E+00
    0.0000000000E+00    0.0000000000E+00    0.0000000000E+00
    0.1000000000E+03    0.0000000000E+00    0.0000000000E+00
    0.0000000000E+00    0.1000000000E+03    0.0000000000E+00
    0.0000000000E+00    0.0000000000E+00    0.4936026512E+01
}

Driver = GeometryOptimization {
 LatticeOpt = Yes
 FixAngles = Yes
 Convergence { GradElem = 10e-7 }
}

Hamiltonian = DFTB {
  SCC = No
  MaxAngularMomentum = {
    C = "p"
    H = "s"
  }
  Filling = Fermi {
    Temperature [Kelvin] = 100.0
  }
  SlaterKosterFiles = Type2FileNames {
    Prefix = {slakos/origin/mio-1-1/}
    Separator = "-"
    Suffix = ".skf"
  }
  KPointsAndWeights = SupercellFolding {
   1 0 0
   0 1 0
   0 0 20
   0.5 0.5 0.5
  }
}

Options = {
  WriteAutotestTag = Yes
}

Analysis = {
  CalculateForces = Yes
  MullikenAnalysis = Yes
}

ParserOptions = {
  ParserVersion = 10
}
