Geometry = GenFormat {
   38  C
  C  O  H
    1 1    0.4469595035E-01    0.2529558175E+01   -0.1237983814E+00
    2 1    0.2160942367E+01    0.1199476067E+01   -0.1241863960E+00
    3 1   -0.7325846755E+00    0.1292868801E+01   -0.1236191448E+00
    4 1    0.1383660048E+01   -0.3721159847E-01   -0.1245940646E+00
    5 1    0.1473213839E+01    0.2453846794E+01   -0.1239594138E+00
    6 1   -0.4486165248E-01    0.3849069978E-01   -0.1241845107E+00
    7 1   -0.5681235339E+00    0.3790420463E+01   -0.1238335077E+00
    8 1    0.3562827209E+01    0.1194100677E+01   -0.1240699930E+00
    9 1   -0.2134470588E+01    0.1298235821E+01   -0.1229465921E+00
   10 1    0.1996477554E+01   -0.1298074482E+01   -0.1254392990E+00
   11 1    0.2232605606E+01    0.3662075036E+01   -0.1239434906E+00
   12 1   -0.8042555395E+00   -0.1169736431E+01   -0.1243904196E+00
   13 1    0.1856181398E+00    0.4971522637E+01   -0.1239750438E+00
   14 1    0.4300246847E+01    0.2385469320E+01   -0.1238324738E+00
   15 1   -0.2871888043E+01    0.1068668396E+00   -0.1229598052E+00
   16 1    0.1242735371E+01   -0.2479187349E+01   -0.1257654891E+00
   17 1    0.1578233909E+01    0.4923857382E+01   -0.1239599285E+00
   18 1    0.3653345610E+01    0.3619652513E+01   -0.1238582784E+00
   19 1   -0.2224990843E+01   -0.1127314702E+01   -0.1237430184E+00
   20 1   -0.1498864530E+00   -0.2431525092E+01   -0.1251961717E+00
   21 1    0.2350236805E+01    0.6184385522E+01   -0.1239787480E+00
   22 1    0.4454367135E+01    0.4861944104E+01   -0.1236643894E+00
   23 1   -0.3026008875E+01   -0.2369611293E+01   -0.1237583478E+00
   24 1   -0.9218838642E+00   -0.3692048664E+01   -0.1254536167E+00
   25 2    0.3769269472E+01    0.6107088122E+01   -0.1239691046E+00
   26 2   -0.2340906938E+01   -0.3614741316E+01   -0.1248378403E+00
   27 2    0.1849773806E+01    0.7285130323E+01   -0.1240351365E+00
   28 2    0.5663236278E+01    0.4888445899E+01   -0.1232448070E+00
   29 2   -0.4234882059E+01   -0.2396107594E+01   -0.1229176670E+00
   30 2   -0.4214130966E+00   -0.4792789273E+01   -0.1261667627E+00
   31 3   -0.1662088874E+01    0.3872936652E+01   -0.1238316668E+00
   32 3    0.4111616566E+01    0.2441351018E+00   -0.1241527155E+00
   33 3   -0.2683260102E+01    0.2248201954E+01   -0.1224310526E+00
   34 3    0.3090453545E+01   -0.1380596619E+01   -0.1258899643E+00
   35 3   -0.3140779633E+00    0.5949512591E+01   -0.1240082215E+00
   36 3    0.5398173612E+01    0.2359333320E+01   -0.1237163677E+00
   37 3   -0.3969820095E+01    0.1330032447E+00   -0.1223975560E+00
   38 3    0.1742436584E+01   -0.3457178671E+01   -0.1264282512E+00
}

Driver = VelocityVerlet{
  # Time step for MD
  TimeStep [fs] = 1.0
  # Use thermostat to maintain temperature
  Thermostat = NoseHoover {
    Temperature [Kelvin] = 400
    # Approximately the highest vibrational frequency of the molecule
    CouplingStrength [cm^-1] = 3200
  }
  # total of 20 ps
  Steps = 20000
  MovedAtoms = 1:-1
  # save every 100 steps
  MDRestartFrequency = 100
}


Hamiltonian = DFTB {
  SCC = Yes
  MaxSCCIterations = 1000
  Filling = Fermi {
    Temperature [Kelvin] = 400
  }
  SlaterKosterFiles = Type2FileNames {
    Prefix = "../../slako/"
    Separator = "-"
    Suffix = ".skf" 
  }
  MaxAngularMomentum = {
    H = "s"
    O = "p"
    C = "p"
  }
}

Analysis = {
  # speed up a bit by suppressing some file writing
  WriteBandOut = No
}

Options = {
  RandomSeed = 3871906
  # speed up a bit by suppressing some file writing
  WriteDetailedOut = No
}

# This file uses the 5th input format
ParserOptions = {
  ParserVersion = 5
}

# if run in MPI parallel, allow openMP threads to be used
Parallel = {
  UseOmpThreads = Yes
}
