Geometry = GenFormat {

    6  S
 Ti  O
    1 1    0.0000000000E+00  0.0000000000E+00  0.0000000000E+00
    2 1    0.0000000000E+00  0.0000000000E+00  0.0000000000E+00
    3 2    0.0000000000E+00  0.0000000000E+00  0.0000000000E+00
    4 2    0.0000000000E+00  0.0000000000E+00  0.0000000000E+00
    5 2    0.0000000000E+00  0.0000000000E+00  0.0000000000E+00
    6 2    0.0000000000E+00  0.0000000000E+00  0.0000000000E+00
    0.0000000000E+00    0.0000000000E+00    0.0000000000E+00
    1.0000000000E+02    0.0000000000E+00    0.0000000000E+00
    0.0000000000E+00    1.0000000000E+02    0.0000000000E+00
    0.0000000000E+00    0.0000000000E+00    1.0000000000E+02

}

Driver = {}

Hamiltonian = DFTB {

  Scc = Yes
  MaxSccIterations = 100
  SccTolerance = 1.00e-05

  SlaterKosterFiles = Type2FileNames {
    Prefix = "../../slakos/mio-ext/"
    Separator = "-"
    Suffix = ".skf"
  }

  MaxAngularMomentum {
    Ti = "d"
    O  = "p"
  }

  KPointsAndWeights = SupercellFolding {
    4   0   0
    0   4   0
    0   0   4
    0.5 0.5 0.5
  }

}

Analysis {
  CalculateForces = Yes
}

ParserOptions {
  ParserVersion = 8
}
