Geometry = GenFormat {
38 C
C O H
     1   1  -3.2103390000E-01   6.4976606000E-01   6.1134966000E-01
     2   1   9.6328881000E-01   2.6810143600E+00   2.4672770000E-02
     3   1   3.7008025000E-01  -1.9148818000E-01  -3.4608252000E-01
     4   1   1.7062543300E+00   1.8667277800E+00  -9.7432192000E-01
     5   1  -4.6635000000E-04   2.0405072500E+00   8.3279825000E-01
     6   1   1.3552255700E+00   4.6696619000E-01  -1.1164276800E+00
     7   1  -1.2084626700E+00   3.5055440000E-02   1.4611567900E+00
     8   1   1.2838829500E+00   4.0436668700E+00   2.3580619000E-01
     9   1   1.7368624000E-01  -1.5974433500E+00  -5.6605157000E-01
    10   1   2.7167114800E+00   2.5171334100E+00  -1.7385943600E+00
    11   1  -6.7994802000E-01   2.7815041000E+00   1.8784723000E+00
    12   1   2.1407047300E+00  -2.9303542000E-01  -2.0652228400E+00
    13   1  -1.9292987000E+00   7.5069414000E-01   2.4361290700E+00
    14   1   6.4765831000E-01   4.7324463100E+00   1.2977432600E+00
    15   1   8.3835424000E-01  -2.2447042900E+00  -1.5758687500E+00
    16   1   3.4495481300E+00   1.6997917600E+00  -2.6509048200E+00
    17   1  -1.6506211100E+00   2.1200052600E+00   2.7154073500E+00
    18   1  -3.6777644000E-01   4.1391518900E+00   2.0732747000E+00
    19   1   1.9139484800E+00  -1.6634948600E+00  -2.2349815200E+00
    20   1   3.1011552300E+00   3.5961796000E-01  -2.8927181400E+00
    21   1  -2.4832568600E+00   2.8190296100E+00   3.7147392800E+00
    22   1  -1.0551337700E+00   4.8836022000E+00   3.2217757000E+00
    23   1   2.5647743600E+00  -2.3565660000E+00  -3.3888315300E+00
    24   1   3.8672443600E+00  -3.7443306000E-01  -3.9283627100E+00
    25   2  -2.2570870700E+00   4.2401457300E+00   3.7669234400E+00
    26   2   3.5670952200E+00  -1.7034416800E+00  -4.2202391900E+00
    27   2  -3.4531757200E+00   2.3849873100E+00   4.3012718900E+00
    28   2  -8.5119925000E-01   5.9864947800E+00   3.6250608000E+00
    29   2   2.2689106300E+00  -3.4863053800E+00  -3.6642365400E+00
    30   2   4.8047915300E+00   1.0340452000E-01  -4.5201062700E+00
    31   3  -1.3310748400E+00  -1.0903765300E+00   1.3043519700E+00
    32   3   2.0065768900E+00   4.5267732800E+00  -4.6496078000E-01
    33   3  -7.6392979000E-01  -2.1566928200E+00  -3.6773373000E-01
    34   3   2.8953294300E+00   3.6457328500E+00  -1.6719959800E+00
    35   3  -2.6358745700E+00   2.0275311000E-01   3.0872061600E+00
    36   3   1.0561540100E+00   5.6545207000E+00   1.6511110400E+00
    37   3   4.3113722000E-01  -3.2352289900E+00  -1.8495723100E+00
    38   3   4.2695602000E+00   2.1622890000E+00  -3.2672901100E+00
}

Driver = VelocityVerlet{

 # Possibly should be a bit smaller for real calculations:
 TimeStep [fs] = 0.5

 # Use the NVE ensemble (as its a molecule, V is infinite)
 Thermostat = None {}
 
 # Specify the initial velocities of the atoms to avoid having a 'burn
 # in' period to get to a 'typical' microstate
 Velocities [AA/ps] { # This is the same unit as xyz format output
      0.63060001     10.71652407      0.41599521
     -4.78167517     -0.67726160      6.81193886
      3.98425977      1.00737908    -10.59008962
     -5.00836769     -4.17503533      6.23338156
     -6.98937694     -6.67991962     13.49283670
      2.60129853      2.94191649     -6.17377828
      5.45307788      4.06412641    -12.66174802
     -7.65333453     -3.97065257      6.97104050
    -10.13358053      2.65525500      1.71478235
      2.43208042      7.32942823      4.28579643
     -4.30000399      3.49584166      3.08283261
      2.24408800     -6.45559687      0.04066731
     -1.94541508      3.92663760     -0.72998677
      5.60486436      3.94060376     -3.20947636
      3.53019985      4.56545155     -1.48062150
      7.81517642      2.25960070      4.82188329
     -0.50193981     -4.94744725      3.06413849
     -0.19059520      4.33561964      2.36256475
      0.09466765     -0.51960301      5.72471343
      4.47619173      7.41074772      1.11201016
      3.27922874     -5.35329287     -2.56702569
      3.99264878     -8.45260216     -4.11369388
     -1.77619915     -3.53622712     -7.62449802
      7.38469860     -1.25504906      0.63982263
     -4.58383155      2.77913648     -3.36202315
      2.57174728      3.16284242     -2.42263621
     -1.51584311      4.83348853     -8.50814642
      3.19719689     -5.10152266      4.80391910
     -1.82283885     -4.42665140     -0.61092820
      0.70148376    -13.29987273      5.73299098
    -48.12863500      6.61689320     -3.55300242
     -7.79595968      7.24986202     -7.89475790
     19.47014048    -24.23046733    -19.62986878
    -22.48734706      8.85056458      5.45198051
     -8.26315843     12.84226567    -16.40492287
    -27.33024406     29.56557052    -25.50583462
    -20.88278228      1.24410318    -14.82956937
     16.44412954     -1.14851662     13.23381502
 }
 
 Steps = 20000 # 10 ps total
 
 MovedAtoms = 1:-1
}


Hamiltonian = DFTB {
  SCC = Yes
  SCCTolerance = 1E-6
  Filling = Fermi {
    Temperature [Kelvin] = 400
  }
  SlaterKosterFiles = Type2FileNames {
   Prefix = "slakos/origin/mio-1-1/"
   Separator = "-"
   Suffix = ".skf" 
  }
  MaxAngularMomentum = {
    H = "s"
    O = "p"
    C = "p"
  }
}

Options = {
  RandomSeed = 3871906
  # speed up a bit by suppressing some file writing
  WriteDetailedOut = No
}

Analysis {
  # speed up a bit by suppressing some file writing
  WriteBandOut = No
}

# This file uses the 5th input format
ParserOptions = {
  ParserVersion = 7
}

# if run in MPI parallel, allow openMP threads to be used
Parallel = {
  UseOmpThreads = Yes
}
