Driver = Socket {
  File = "dftbplus"
  Protocol = i-PI {}
  MaxSteps = 1000
  Verbosity = 0
}

Geometry = GenFormat {
  <<< "geo.gen"
}

Hamiltonian = DFTB {
  SCC = No

  MaxAngularMomentum = {
    O = "p"
    H = "s"
  }

  SlaterKosterFiles = Type2FileNames {
    Prefix = "../../../slakos/mio-ext/"
    Separator = "-"
    Suffix = ".skf"
  }
}

