Geometry = GenFormat {
    <<< "geo_in.gen"
}

Driver = {}

Hamiltonian = DFTB {
    
    SCC = Yes
    SCCTolerance = 1.0E-10
    MaxAngularMomentum = {
        N = "p"
    }
    SlaterKosterFiles = Type2FileNames {
        Prefix = "../../../slakos/mio-ext/"
        Separator = "-"
        Suffix = ".skf"
    }
    SpinConstants = {
        N = {-0.026} # HOMO Wpp
    }
}

ExcitedState {
    Casida {
        NrOfExcitations = 10
        Symmetry = Both
    }
}

