Geometry = GenFormat {
  <<< "str.gen"
}


Transport {
    Device {
      AtomRange = 1 95 
    }
    Contact {
      Id = "Source"
      AtomRange = 96 143
      PLShiftTolerance = 0.0003
    }
    Contact {
      Id = "Drain"
      AtomRange = 144 191
      PLShiftTolerance = 0.0003
    }
  
  Task = ContactHamiltonian{
    ContactId = "Source"
  }
}



Hamiltonian = DFTB {
  SCC = yes
  MaxSCCIterations = 100

  SlaterKosterFiles = Type2FileNames {
    Prefix = "./slako/"
    Separator = "-"
    Suffix = ".skf"
  }

  MaxAngularMomentum {
    C = "p"
    O = "p"
    H = "s"
  }

  Filling = Fermi {
    Temperature [Kelvin] = 0.0
  }

  KPointsAndWeights = SupercellFolding {
     16  0  0
     0  16  0
     0  0   1
    0.0 0.0 0.0
  }

  Solver = DivideAndConquer{}
}

Parallel = {
  UseOMPThreads = Yes
}
