Geometry = xyzFormat {
<<< "struc.xyz"
}

Hamiltonian = xTB {
  ParameterFile = "gfn1-si-xtb.toml"
}

Options = { WriteDetailedOut = No }
Analysis { CalculateForces = Yes }
ParserOptions = { ParserVersion = 10 }
Parallel = { UseOmpThreads = Yes }
